# AMPL MODEL: ./res/solid.ampl

# Timestamp: 17 February 2025, 10:23:52 AM

param MAXWORK := 32;

param:
TNAME: TWORK :=
'charlie.pf' 40
'charlie.pm' 320
'delta.pf' 20
'delta.pm' 100
'juliet.pe' 40
'juliet.pf' 20
'juliet.pm' 200
'mike.pe' 40
'mike.pf' 20
'mike.pm' 200
'november.pe' 40
'november.pf' 20
'november.pm' 220
'oscar2.pf' 80
'oscar2.pm' 240
'papa2.pf' 0
'papa2.pm' 400
'quebec2.pe' 100
'quebec2.pf' 80
'quebec2.pm' 480
'sierra2.pf' 40
'sierra2.pm' 160
'xray2.pe' 100
'xray2.pf' 40
'xray2.pm' 480;

set TSCOPE['charlie.pf'] :=
158 161 162 163 164 165 168 169 170 171 172 175 176 177 178 179 182 183 184 185 186
;

set TSCOPE['charlie.pm'] :=
3 4 7 8 9 10 11 14 15 16 17 18 21 22 23 24 25 28 29 30 31 32 35 36 37 38 39 42 43 44 45 46 49 50 51 52 53 56 57 58 59 60 63 64 65 66 67 70 71 72
73 74 77 78 79 80 81 84 85 86 87 88 91 92 93 94 95 98 99 100 101 102 105 106 107 108 109 112 113 114 115 116 119 120 121 123 126 127 128 129 130 133 134 135 136 137 140 141 142 143
144 147 148 149 150 151 154 155 156 157
;

set TSCOPE['delta.pf'] :=
58 59 60 63 64 65 66 67 70 71 72 73 74 77 78 79 80 81 84 85 86 87 88 91 92 93 94 95 98 99 100 101 102
;

set TSCOPE['delta.pm'] :=
3 4 7 8 9 10 11 14 15 16 17 18 21 22 23 24 25 28 29 30 31 32 35 36 37 38 39 42 43 44 45 46 49 50 51 52 53 56 57
;

set TSCOPE['juliet.pe'] :=
42 43 44 45 46 49 50 51 52 53 56 57 58 59
;

set TSCOPE['juliet.pf'] :=
183 184 185 186 189 190 191 192 193 196 197 198 199 200 203 204 205 206 207 210 211 212 213 214 217 218 219 220 221 224 225 226 227 228
;

set TSCOPE['juliet.pm'] :=
60 63 64 65 66 67 70 71 72 73 74 77 78 79 80 81 84 85 86 87 88 91 92 93 94 95 98 99 100 101 102 105 106 107 108 109 112 113 114 115 116 119 120 121 123 126 127 128 129 130
133 134 135 136 137 140 141 142 143 144 147 148 149 150 151 154 155 156 157 158 161 162 163 164 165 168 169 170 171 172 175 176 177 178 179 182
;

set TSCOPE['mike.pe'] :=
101 102 105 106 107 108 109
;

set TSCOPE['mike.pf'] :=
270 273 274 275 276 277 280 281 282 283 284 287 288 289 290 291 294 295 296 297 298 301 302 303 304
;

set TSCOPE['mike.pm'] :=
112 113 114 115 116 119 120 121 123 126 127 128 129 130 133 134 135 136 137 140 141 142 143 144 147 148 149 150 151 154 155 156 157 158 161 162 163 164 165 168 169 170 171 172 175 176 177 178 179 182
183 184 185 186 189 190 191 192 193 196 197 198 199 200 203 204 205 206 207 210 211 212 213 214 217 218 219 220 221 224 225 226 227 228 231 232 233 234 235 238 239 240 241 242 245 246 247 248 249 252
253 254 255 256 259 260 261 262 263 266 267 268 269
;

set TSCOPE['november.pe'] :=
147 148 149 150 151 154 155 156 157 158 161 162 163 164 165
;

set TSCOPE['november.pf'] :=
366 367 368 371 372 373 374 375 378 379 380 381 382 385 386 387 388 389 392 393 394 395 396
;

set TSCOPE['november.pm'] :=
168 169 170 171 172 175 176 177 178 179 182 183 184 185 186 189 190 191 192 193 196 197 198 199 200 203 204 205 206 207 210 211 212 213 214 217 218 219 220 221 224 225 226 227 228 231 232 233 234 235
238 239 240 241 242 245 246 247 248 249 252 253 254 255 256 259 260 261 262 263 266 267 268 269 270 273 274 275 276 277 280 281 282 283 284 287 288 289 290 291 294 295 296 297 298 301 302 303 304 305
308 309 310 311 312 315 316 317 318 319 322 323 324 325 326 329 330 331 332 333 336 337 338 339 340 343 344 345 346 347 350 351 352 353 354 357 358 359 360 361 364 365
;

set TSCOPE['oscar2.pf'] :=
175 176 177 178 179 182
;

set TSCOPE['oscar2.pm'] :=
3 4 7 8 9 10 11 14 15 16 17 18 21 22 23 24 25 28 29 30 31 32 35 36 37 38 39 42 43 44 45 46 49 50 51 52 53 56 57 58 59 60 63 64 65 66 67 70 71 72
73 74 77 78 79 80 81 84 85 86 87 88 91 92 93 94 95 98 99 100 101 102 105 106 107 108 109 112 113 114 115 116 119 120 121 123 126 127 128 129 130 133 134 135 136 137 140 141 142 143
144 147 148 149 150 151 154 155 156 157 158 161 162 163 164 165 168 169 170 171 172
;

set TSCOPE['papa2.pf'] :=
175 176 177 178 179 182
;

set TSCOPE['papa2.pm'] :=
3 4 7 8 9 10 11 14 15 16 17 18 21 22 23 24 25 28 29 30 31 32 35 36 37 38 39 42 43 44 45 46 49 50 51 52 53 56 57 58 59 60 63 64 65 66 67 70 71 72
73 74 77 78 79 80 81 84 85 86 87 88 91 92 93 94 95 98 99 100 101 102 105 106 107 108 109 112 113 114 115 116 119 120 121 123 126 127 128 129 130 133 134 135 136 137 140 141 142 143
144 147 148 149 150 151 154 155 156 157 158 161 162 163 164 165 168 169 170 171 172
;

set TSCOPE['quebec2.pe'] :=
154 155 156 157 158 161 162 163 164 165 168 169 170 171 172 175 176 177 178
;

set TSCOPE['quebec2.pf'] :=
680 681 682 683 686 687 688 689 690 693 694 695 696 697 700 701 702 703 704 707 708 709 710 711 714 715 716 717 718 721 722 723 724 725 728 729 730 731 732 735
;

set TSCOPE['quebec2.pm'] :=
179 182 183 184 185 186 189 190 191 192 193 196 197 198 199 200 203 204 205 206 207 210 211 212 213 214 217 218 219 220 221 224 225 226 227 228 231 232 233 234 235 238 239 240 241 242 245 246 247 248
249 252 253 254 255 256 259 260 261 262 263 266 267 268 269 270 273 274 275 276 277 280 281 282 283 284 287 288 289 290 291 294 295 296 297 298 301 302 303 304 305 308 309 310 311 312 315 316 317 318
319 322 323 324 325 326 329 330 331 332 333 336 337 338 339 340 343 344 345 346 347 350 351 352 353 354 357 358 359 360 361 364 365 366 367 368 371 372 373 374 375 378 379 380 381 382 385 386 387 388
389 392 393 394 395 396 399 400 401 402 403 406 407 408 409 410 413 414 415 416 417 420 421 422 423 424 427 428 429 430 431 434 435 436 437 438 441 442 443 444 445 448 449 450 451 452 455 456 457 458
459 462 463 464 465 466 469 470 471 472 473 476 477 478 479 480 483 484 485 486 487 490 491 492 493 494 497 498 499 500 501 504 505 506 507 508 511 512 513 514 515 518 519 520 521 522 525 526 527 528
529 532 533 534 535 536 539 540 541 542 543 546 547 548 549 550 553 554 555 556 557 560 561 562 563 564 567 568 569 570 571 574 575 576 577 578 581 582 583 584 585 588 589 590 591 592 595 596 597 598
599 602 603 604 605 606 609 610 611 612 613 616 617 618 619 620 623 624 625 626 627 630 631 632 633 634 637 638 639 640 641 644 645 646 647 648 651 652 653 654 655 658 659 660 661 662 665 666 667 668
669 672 673 674 675 676 679
;

set TSCOPE['sierra2.pf'] :=
63 64 65 66 67 70
;

set TSCOPE['sierra2.pm'] :=
3 4 7 8 9 10 11 14 15 16 17 18 21 22 23 24 25 28 29 30 31 32 35 36 37 38 39 42 43 44 45 46 49 50 51 52 53 56 57 58 59 60
;

set TSCOPE['xray2.pe'] :=
197 198 199 200 203 204 205 206 207 210 211 212 213 214 217 218 219 220 221
;

set TSCOPE['xray2.pf'] :=
374 375 378 379 380 381 382 385 386 387 388 389 392 393 394 395 396
;

set TSCOPE['xray2.pm'] :=
224 225 226 227 228 231 232 233 234 235 238 239 240 241 242 245 246 247 248 249 252 253 254 255 256 259 260 261 262 263 266 267 268 269 270 273 274 275 276 277 280 281 282 283 284 287 288 289 290 291
294 295 296 297 298 301 302 303 304 305 308 309 310 311 312 315 316 317 318 319 322 323 324 325 326 329 330 331 332 333 336 337 338 339 340 343 344 345 346 347 350 351 352 353 354 357 358 359 360 361
364 365 366 367 368 371 372 373
;

set ENAME :=
'PM.Angel';

set ASSIGN :=
('PM.Angel',*)
'charlie.pf'
'charlie.pm'
'delta.pf'
'delta.pm'
'juliet.pe'
'juliet.pf'
'juliet.pm'
'mike.pe'
'mike.pf'
'mike.pm'
'november.pe'
'november.pf'
'november.pm'
'oscar2.pf'
'oscar2.pm'
'papa2.pf'
'papa2.pm'
'quebec2.pe'
'quebec2.pf'
'quebec2.pm'
'sierra2.pf'
'sierra2.pm'
'xray2.pe'
'xray2.pf'
'xray2.pm';

param:
XBID: XBEXPERT XBTASK XBS XBE XBL XBU :=
1 'PM.Angel' 'charlie.pf' 158 188 1 2
2 'PM.Angel' 'charlie.pm' 2 157 2 3
3 'PM.Angel' 'delta.pf' 58 103 0 1
4 'PM.Angel' 'delta.pm' 2 57 2 3
5 'PM.Angel' 'juliet.pe' 42 59 2 3
6 'PM.Angel' 'juliet.pf' 183 228 0 1
7 'PM.Angel' 'juliet.pm' 60 182 2 3
8 'PM.Angel' 'mike.pe' 101 111 5 6
9 'PM.Angel' 'mike.pf' 270 304 0 1
10 'PM.Angel' 'mike.pm' 112 269 1 2
11 'PM.Angel' 'november.pe' 147 166 2 3
12 'PM.Angel' 'november.pf' 366 397 0 1
13 'PM.Angel' 'november.pm' 167 365 1 2
14 'PM.Angel' 'oscar2.pf' 173 182 13 14
15 'PM.Angel' 'oscar2.pm' 2 172 1 2
16 'PM.Angel' 'papa2.pf' 173 182 0 32
17 'PM.Angel' 'papa2.pm' 2 172 3 4
18 'PM.Angel' 'quebec2.pe' 153 178 2 6
19 'PM.Angel' 'quebec2.pf' 680 735 0 3
20 'PM.Angel' 'quebec2.pm' 179 679 1 2
21 'PM.Angel' 'sierra2.pf' 63 70 6 7
22 'PM.Angel' 'sierra2.pm' 2 62 3 4
23 'PM.Angel' 'xray2.pe' 197 222 5 6
24 'PM.Angel' 'xray2.pf' 374 398 2 3
25 'PM.Angel' 'xray2.pm' 223 373 4 5;

param:
EBID: EBEXPERT EBS EBE EBL EBU :=
;

param:
PNAME: PERS PERE :=
'Jan.25' 1 16
'Feb.25' 17 45
'Mar.25' 46 76
'Apr.25' 77 105
'May.25' 106 139
'Jun.25' 140 170
'Jul.25' 171 199
'Aug.25' 200 230
'Sep.25' 231 259
'Oct.25' 260 289
'Nov.25' 290 317
'Dec.25' 318 346;

param:
EXPPER: PBL PBU :=
['PM.Angel',*]
'Apr.25' 0 720
'Aug.25' 0 720
'Dec.25' 0 720
'Feb.25' 0 720
'Jan.25' 0 720
'Jul.25' 0 720
'Jun.25' 0 720
'Mar.25' 0 720
'May.25' 0 720
'Nov.25' 0 720
'Oct.25' 0 720
'Sep.25' 0 720;

